Route 1: 1 35 34 9 3 29 24 12

Route 2: 23 42 13

Route 3: 37 17 45 46 19 49 47 48 18

Route 4: 31 10 8 36

Route 5: 40 26 15 38 14

Route 6: 32 30 11 33 20 7

Route 7: 27 5 16 44 43 39 25

Route 8: 50 21 2 22 41 4 28 6

Vehicles: 8

Distance: 1030.30

